# Solution for model GasLib-40
# Objective value = 1.1791283878065324e+01
loadshed[innode_1] 0
loadshed[innode_2] 0
loadshed[innode_3] 0
loadshed[innode_4] 0
loadshed[innode_5] 0
loadshed[innode_6] 0
loadshed[innode_7] 0
loadshed[innode_8] 0
loadshed[source_1] -2.4861813801165811e-01
loadshed[source_2] 1.3895001333881629e-01
loadshed[source_3] 1.8425388695871370e-01
loadshed[sink_1] 0
loadshed[sink_2] 0
loadshed[sink_3] 0
loadshed[sink_4] 0
loadshed[sink_5] 0
loadshed[sink_6] 0
loadshed[sink_7] 0
loadshed[sink_8] 0
loadshed[sink_9] 0
loadshed[sink_10] 0
loadshed[sink_11] 0
loadshed[sink_12] 7.2099570209826180e-01
loadshed[sink_13] 0
loadshed[sink_14] 0
loadshed[sink_15] 0
loadshed[sink_16] 0
loadshed[sink_17] 0
loadshed[sink_18] 0
loadshed[sink_19] 0
loadshed[sink_20] 0
loadshed[sink_21] 0
loadshed[sink_22] 0
loadshed[sink_23] 0
loadshed[sink_24] 0
loadshed[sink_25] 0
loadshed[sink_26] 0
loadshed[sink_27] 0
loadshed[sink_28] 0
loadshed[sink_29] 0
flow[source_1,sink_3] 1.9739438827663469e+02
flow[innode_1,sink_16] 1.6354166666666970e+01
flow[innode_6,sink_13] -1.4482362940171996e+01
flow[sink_13,sink_14] -3.0836529606838663e+01
flow[sink_14,sink_10] -4.7190696273505331e+01
flow[sink_25,sink_26] 1.7846273266082616e+02
flow[sink_26,sink_9] 1.3539621612193477e+02
flow[sink_9,sink_18] 1.1904204945526810e+02
flow[sink_26,sink_4] 2.6712349872225275e+01
flow[sink_4,sink_20] -3.8704316794443457e+01
flow[sink_18,sink_6] 1.0268788278860143e+02
flow[sink_25,innode_8] -1.6468605494329833e+02
flow[sink_6,sink_7] 5.3625382788601343e+01
flow[sink_6,sink_22] 3.2708333333333641e+01
flow[sink_7,sink_24] 3.7271216121934678e+01
flow[sink_22,sink_1] 1.6354166666666970e+01
flow[sink_24,sink_21] 2.0917049455268010e+01
flow[sink_21,sink_12] 4.5628827886013426e+00
flow[sink_7,sink_5] 0
flow[sink_5,sink_17] -1.6354166666667197e+01
flow[sink_17,sink_4] -4.9062500000002274e+01
flow[sink_17,sink_8] 1.6354166666668334e+01
flow[sink_3,sink_23] 16.3541666666697
flow[sink_8,sink_20] 0
flow[sink_25,sink_20] 5.5058483461110285e+01
flow[sink_25,sink_15] -7.0706964905132580e+01
flow[sink_15,sink_29] -1.0341529823848350e+02
flow[sink_29,sink_28] 1.6354166666667879e+01
flow[sink_29,sink_2] 0
flow[sink_2,sink_15] -1.6354166666684250e+01
flow[sink_29,innode_7] -1.3612363157181838e+02
flow[innode_4,sink_19] 5.0396293093709239e+01
flow[sink_19,innode_3] 4.6971153496949896e+01
flow[innode_4,innode_5] 7.8565236513130216e+01
flow[sink_27,innode_5] -7.8565236513130216e+01
flow[sink_27,sink_19] 6.2211069846463552e+01
flow[sink_10,sink_11] 3.2708333333333641e+01
flow[sink_10,innode_2] -4.9282042776555741e+01
flow[sink_10,innode_3] -4.6971153496949896e+01
flow[innode_6,sink_25] 1.4482362940171996e+01
flow[sink_11,innode_1] 1.6354166666666970e+01
flow[sink_19,innode_2] 4.9282042776555741e+01
flow[source_3,innode_4] 1.2896152960683946e+02
flow[source_2,innode_7] 1.3612363157181838e+02
flow[sink_3,innode_8] 1.6468605494329833e+02
pressure[innode_1] 7.6215106946439775e+01
pressure[innode_2] 7.8971567756287158e+01
pressure[innode_3] 78.8675554557743
pressure[innode_4] 81.01325
pressure[innode_5] 8.0959208687568520e+01
pressure[innode_6] 7.3999731139849359e+01
pressure[innode_7] 81.01325
pressure[innode_8] 8.0353435967380747e+01
pressure[source_1] 81.01325
pressure[source_2] 81.01325
pressure[source_3] 81.01325
pressure[sink_1] 4.4176446722517404e+01
pressure[sink_2] 7.4289336068283262e+01
pressure[sink_3] 8.0353435967380747e+01
pressure[sink_4] 5.8034428386495719e+01
pressure[sink_5] 5.4941154209733838e+01
pressure[sink_6] 4.6277524332904775e+01
pressure[sink_7] 4.5541375650783586e+01
pressure[sink_8] 5.5542336219674965e+01
pressure[sink_9] 5.3326892700985930e+01
pressure[sink_10] 7.6366808254043320e+01
pressure[sink_11] 7.6215106946439775e+01
pressure[sink_12] 1.0132499999999991e+00
pressure[sink_13] 7.4079569986510847e+01
pressure[sink_14] 7.4134754582933809e+01
pressure[sink_15] 7.4342728818049707e+01
pressure[sink_16] 75.1934571116221
pressure[sink_17] 5.6159421415088588e+01
pressure[sink_18] 49.0195965453671
pressure[sink_19] 7.8971567756287158e+01
pressure[sink_20] 6.0873957031787164e+01
pressure[sink_21] 2.63697342373212
pressure[sink_22] 4.5240215864872411e+01
pressure[sink_23] 8.0188717955720961e+01
pressure[sink_24] 2.8686103121924944e+00
pressure[sink_25] 7.3999731139849359e+01
pressure[sink_26] 61.4307056838982
pressure[sink_27] 8.0307262397457038e+01
pressure[sink_28] 77.0771938455507
pressure[sink_29] 7.7372476119167871e+01
interdiction[source_1,sink_3] 0
interdiction[innode_1,sink_16] 0
interdiction[innode_6,sink_13] 0
interdiction[sink_13,sink_14] 0
interdiction[sink_14,sink_10] 0
interdiction[sink_25,sink_26] 0
interdiction[sink_26,sink_9] 0
interdiction[sink_9,sink_18] 0
interdiction[sink_26,sink_4] 0
interdiction[sink_4,sink_20] 0
interdiction[sink_18,sink_6] 0
interdiction[sink_25,innode_8] 0
interdiction[sink_6,sink_7] 0
interdiction[sink_6,sink_22] 0
interdiction[sink_7,sink_24] 0
interdiction[sink_22,sink_1] 0
interdiction[sink_24,sink_21] 0
interdiction[sink_21,sink_12] 0
interdiction[sink_7,sink_5] 1
interdiction[sink_5,sink_17] 0
interdiction[sink_17,sink_4] 0
interdiction[sink_17,sink_8] 0
interdiction[sink_3,sink_23] 0
interdiction[sink_8,sink_20] 1
interdiction[sink_25,sink_20] 0
interdiction[sink_25,sink_15] 0
interdiction[sink_15,sink_29] 0
interdiction[sink_29,sink_28] 0
interdiction[sink_29,sink_2] 1
interdiction[sink_2,sink_15] 0
interdiction[sink_29,innode_7] 0
interdiction[innode_4,sink_19] 0
interdiction[sink_19,innode_3] 0
interdiction[innode_4,innode_5] 0
interdiction[sink_27,innode_5] 0
interdiction[sink_27,sink_19] 0
interdiction[sink_10,sink_11] 0
interdiction[sink_10,innode_2] 0
interdiction[sink_10,innode_3] 0
interdiction[innode_6,sink_25] 0
interdiction[sink_11,innode_1] 0
interdiction[sink_19,innode_2] 0
interdiction[source_3,innode_4] 0
interdiction[source_2,innode_7] 0
interdiction[sink_3,innode_8] 0
WCcheckFlow[source_1,sink_3] 39
WCcheckFlow[innode_1,sink_16] 1
WCcheckFlow[innode_6,sink_13] 13
WCcheckFlow[sink_13,sink_14] 12
WCcheckFlow[sink_14,sink_10] 11
WCcheckFlow[sink_25,sink_26] 15
WCcheckFlow[sink_26,sink_9] 9
WCcheckFlow[sink_9,sink_18] 8
WCcheckFlow[sink_26,sink_4] 5
WCcheckFlow[sink_4,sink_20] 1
WCcheckFlow[sink_18,sink_6] 7
WCcheckFlow[sink_25,innode_8] -36
WCcheckFlow[sink_6,sink_7] 4
WCcheckFlow[sink_6,sink_22] 2
WCcheckFlow[sink_7,sink_24] 3
WCcheckFlow[sink_22,sink_1] 1
WCcheckFlow[sink_24,sink_21] 2
WCcheckFlow[sink_21,sink_12] 1
WCcheckFlow[sink_7,sink_5] 0
WCcheckFlow[sink_5,sink_17] -1
WCcheckFlow[sink_17,sink_4] -3
WCcheckFlow[sink_17,sink_8] 1
WCcheckFlow[sink_3,sink_23] 1
WCcheckFlow[sink_8,sink_20] 0
WCcheckFlow[sink_25,sink_20] 0
WCcheckFlow[sink_25,sink_15] 6
WCcheckFlow[sink_15,sink_29] 4
WCcheckFlow[sink_29,sink_28] 1
WCcheckFlow[sink_29,sink_2] 0
WCcheckFlow[sink_2,sink_15] -1
WCcheckFlow[sink_29,innode_7] 2
WCcheckFlow[innode_4,sink_19] -4
WCcheckFlow[sink_19,innode_3] -5
WCcheckFlow[innode_4,innode_5] 2
WCcheckFlow[sink_27,innode_5] -1
WCcheckFlow[sink_27,sink_19] 0
WCcheckFlow[sink_10,sink_11] 3
WCcheckFlow[sink_10,innode_2] 1
WCcheckFlow[sink_10,innode_3] 6
WCcheckFlow[innode_6,sink_25] -14
WCcheckFlow[sink_11,innode_1] 2
WCcheckFlow[sink_19,innode_2] 0
WCcheckFlow[source_3,innode_4] -1
WCcheckFlow[source_2,innode_7] -1
WCcheckFlow[sink_3,innode_8] 37
